33D32945 STP File, STP Format Version 1.0

SECTION Comment
Name "i640-231-PCST"
Creator "Indaco Biazzo" 
Remark "derived from Incidence graph by Cees Duin"
END

SECTION Graph
Nodes 640
Edges 1280
E 1 81 212.000000
E 1 90 205.000000
E 1 100 204.000000
E 1 157 207.000000
E 1 375 204.000000
E 1 407 199.000000
E 1 410 195.000000
E 1 419 205.000000
E 1 423 190.000000
E 1 455 197.000000
E 1 577 194.000000
E 2 92 196.000000
E 2 211 198.000000
E 2 356 198.000000
E 2 611 192.000000
E 2 612 204.000000
E 2 622 198.000000
E 3 27 299.000000
E 3 150 202.000000
E 3 162 197.000000
E 3 239 201.000000
E 3 290 200.000000
E 3 391 201.000000
E 3 599 207.000000
E 4 444 205.000000
E 4 451 204.000000
E 4 554 191.000000
E 5 35 307.000000
E 5 161 197.000000
E 5 201 198.000000
E 5 260 207.000000
E 5 364 204.000000
E 5 511 205.000000
E 6 267 200.000000
E 6 440 202.000000
E 6 501 196.000000
E 7 253 202.000000
E 7 311 199.000000
E 7 340 200.000000
E 7 461 206.000000
E 8 20 302.000000
E 8 249 204.000000
E 8 486 204.000000
E 9 83 200.000000
E 9 104 199.000000
E 9 411 194.000000
E 9 486 199.000000
E 9 622 194.000000
E 10 418 197.000000
E 10 536 200.000000
E 10 637 200.000000
E 11 490 196.000000
E 11 594 199.000000
E 12 233 203.000000
E 12 321 197.000000
E 13 101 196.000000
E 13 193 199.000000
E 13 307 194.000000
E 13 312 200.000000
E 13 318 191.000000
E 13 434 204.000000
E 13 539 206.000000
E 13 638 199.000000
E 14 459 195.000000
E 14 556 210.000000
E 15 393 199.000000
E 15 442 204.000000
E 15 570 200.000000
E 16 147 204.000000
E 17 357 203.000000
E 17 433 206.000000
E 17 436 191.000000
E 17 500 198.000000
E 17 575 208.000000
E 17 603 200.000000
E 18 245 197.000000
E 18 561 190.000000
E 18 570 199.000000
E 18 603 198.000000
E 19 138 196.000000
E 19 322 196.000000
E 19 380 188.000000
E 20 149 193.000000
E 20 247 204.000000
E 20 345 208.000000
E 20 571 204.000000
E 21 170 205.000000
E 21 544 197.000000
E 22 32 294.000000
E 22 60 190.000000
E 22 603 209.000000
E 23 65 197.000000
E 23 185 205.000000
E 23 218 196.000000
E 23 292 193.000000
E 23 531 206.000000
E 24 70 200.000000
E 24 139 186.000000
E 24 155 191.000000
E 24 499 197.000000
E 24 523 200.000000
E 24 554 191.000000
E 24 630 197.000000
E 25 213 205.000000
E 25 488 200.000000
E 26 152 193.000000
E 26 166 194.000000
E 26 394 202.000000
E 26 537 201.000000
E 27 224 208.000000
E 27 562 195.000000
E 28 30 302.000000
E 28 281 201.000000
E 28 490 205.000000
E 28 497 198.000000
E 28 632 196.000000
E 29 163 202.000000
E 29 221 197.000000
E 29 248 199.000000
E 30 118 195.000000
E 30 179 207.000000
E 30 283 194.000000
E 30 363 194.000000
E 30 381 202.000000
E 30 397 201.000000
E 30 602 210.000000
E 31 303 204.000000
E 31 313 202.000000
E 31 396 195.000000
E 31 501 200.000000
E 32 154 205.000000
E 32 405 205.000000
E 32 473 202.000000
E 32 521 195.000000
E 32 541 197.000000
E 33 125 212.000000
E 33 250 201.000000
E 33 296 204.000000
E 33 476 200.000000
E 34 58 197.000000
E 34 348 201.000000
E 34 478 200.000000
E 34 559 200.000000
E 35 226 201.000000
E 36 104 202.000000
E 36 342 199.000000
E 37 84 199.000000
E 37 354 206.000000
E 37 362 208.000000
E 37 634 190.000000
E 38 160 199.000000
E 38 163 201.000000
E 38 329 202.000000
E 38 338 197.000000
E 38 386 197.000000
E 38 402 200.000000
E 38 475 203.000000
E 38 495 195.000000
E 39 52 199.000000
E 39 63 198.000000
E 39 204 199.000000
E 39 410 202.000000
E 40 85 197.000000
E 40 89 194.000000
E 40 306 196.000000
E 40 377 205.000000
E 41 100 204.000000
E 41 462 195.000000
E 41 557 204.000000
E 42 50 289.000000
E 42 334 199.000000
E 42 428 199.000000
E 42 473 201.000000
E 42 512 193.000000
E 43 101 195.000000
E 43 135 197.000000
E 43 234 203.000000
E 43 282 192.000000
E 43 314 188.000000
E 43 375 196.000000
E 43 456 194.000000
E 43 506 191.000000
E 43 540 185.000000
E 43 629 203.000000
E 44 69 208.000000
E 44 157 203.000000
E 44 256 202.000000
E 44 310 195.000000
E 44 352 200.000000
E 45 49 299.000000
E 45 207 206.000000
E 45 243 191.000000
E 45 625 205.000000
E 46 206 197.000000
E 46 371 198.000000
E 46 527 192.000000
E 46 561 204.000000
E 47 170 206.000000
E 47 245 189.000000
E 47 533 198.000000
E 47 548 195.000000
E 48 190 209.000000
E 48 207 197.000000
E 48 399 206.000000
E 48 629 196.000000
E 49 246 202.000000
E 49 255 202.000000
E 49 294 201.000000
E 49 496 205.000000
E 49 637 197.000000
E 50 315 200.000000
E 50 408 206.000000
E 50 624 189.000000
E 50 639 199.000000
E 51 79 101.000000
E 51 105 112.000000
E 51 207 104.000000
E 51 319 105.000000
E 52 231 105.000000
E 52 238 96.000000
E 52 526 101.000000
E 52 538 102.000000
E 52 596 93.000000
E 53 59 102.000000
E 53 78 100.000000
E 53 147 101.000000
E 53 208 97.000000
E 53 241 101.000000
E 53 309 99.000000
E 53 345 103.000000
E 53 439 95.000000
E 53 567 94.000000
E 54 102 95.000000
E 54 556 101.000000
E 54 558 97.000000
E 54 609 97.000000
E 55 269 105.000000
E 55 326 103.000000
E 55 441 99.000000
E 55 521 99.000000
E 55 541 98.000000
E 55 566 107.000000
E 55 568 108.000000
E 56 71 97.000000
E 56 182 96.000000
E 56 207 96.000000
E 56 223 110.000000
E 56 352 99.000000
E 56 387 100.000000
E 56 524 101.000000
E 56 609 100.000000
E 57 134 104.000000
E 57 313 101.000000
E 57 450 107.000000
E 57 583 101.000000
E 57 623 97.000000
E 58 422 101.000000
E 58 434 103.000000
E 58 437 98.000000
E 58 532 97.000000
E 59 316 99.000000
E 59 481 110.000000
E 60 65 97.000000
E 60 235 98.000000
E 60 295 93.000000
E 60 345 99.000000
E 61 186 103.000000
E 61 575 92.000000
E 62 81 99.000000
E 62 139 101.000000
E 62 216 92.000000
E 62 226 100.000000
E 62 231 100.000000
E 62 333 111.000000
E 62 432 98.000000
E 63 331 108.000000
E 63 423 102.000000
E 63 595 96.000000
E 64 213 104.000000
E 64 243 105.000000
E 64 432 96.000000
E 64 508 108.000000
E 65 146 99.000000
E 65 256 107.000000
E 65 497 98.000000
E 65 618 106.000000
E 66 168 104.000000
E 66 288 93.000000
E 66 332 96.000000
E 66 572 97.000000
E 67 89 93.000000
E 67 265 95.000000
E 67 350 98.000000
E 67 591 101.000000
E 67 609 108.000000
E 68 183 107.000000
E 68 308 99.000000
E 69 187 94.000000
E 69 289 118.000000
E 69 387 99.000000
E 69 587 106.000000
E 70 83 102.000000
E 70 158 108.000000
E 70 380 95.000000
E 70 460 99.000000
E 70 562 99.000000
E 70 578 102.000000
E 71 215 97.000000
E 71 252 96.000000
E 71 306 103.000000
E 72 514 95.000000
E 72 521 96.000000
E 72 557 104.000000
E 73 387 98.000000
E 73 593 102.000000
E 74 139 99.000000
E 74 535 92.000000
E 75 226 101.000000
E 75 403 98.000000
E 76 116 97.000000
E 76 122 95.000000
E 76 306 93.000000
E 76 532 107.000000
E 77 370 91.000000
E 78 80 100.000000
E 78 327 94.000000
E 78 373 112.000000
E 78 494 107.000000
E 78 519 97.000000
E 79 394 93.000000
E 79 625 106.000000
E 80 85 96.000000
E 80 295 105.000000
E 80 362 103.000000
E 80 474 95.000000
E 81 102 98.000000
E 81 141 104.000000
E 81 149 98.000000
E 81 390 96.000000
E 81 547 97.000000
E 81 585 108.000000
E 81 626 96.000000
E 82 478 99.000000
E 83 507 101.000000
E 84 202 99.000000
E 84 375 105.000000
E 84 381 99.000000
E 84 591 99.000000
E 85 185 99.000000
E 85 502 92.000000
E 85 595 108.000000
E 86 497 97.000000
E 86 626 90.000000
E 87 159 104.000000
E 87 233 108.000000
E 88 203 99.000000
E 88 212 106.000000
E 88 456 93.000000
E 89 127 89.000000
E 89 200 96.000000
E 89 302 102.000000
E 89 328 100.000000
E 89 337 106.000000
E 89 356 98.000000
E 89 388 90.000000
E 89 526 98.000000
E 90 129 105.000000
E 90 548 103.000000
E 90 626 102.000000
E 90 636 102.000000
E 91 141 97.000000
E 91 205 93.000000
E 91 590 101.000000
E 92 347 99.000000
E 92 638 101.000000
E 93 189 104.000000
E 93 292 101.000000
E 93 373 99.000000
E 93 596 95.000000
E 94 498 103.000000
E 94 571 111.000000
E 95 169 104.000000
E 95 375 107.000000
E 96 225 99.000000
E 97 497 100.000000
E 98 502 98.000000
E 98 503 89.000000
E 98 614 109.000000
E 99 170 99.000000
E 99 259 103.000000
E 100 125 104.000000
E 100 341 99.000000
E 100 376 89.000000
E 100 569 98.000000
E 101 188 103.000000
E 101 347 101.000000
E 103 142 102.000000
E 103 147 97.000000
E 103 348 97.000000
E 103 446 94.000000
E 103 624 106.000000
E 104 605 100.000000
E 105 131 103.000000
E 105 420 104.000000
E 106 474 95.000000
E 107 318 102.000000
E 107 481 104.000000
E 107 548 98.000000
E 107 567 102.000000
E 108 392 95.000000
E 108 436 91.000000
E 108 446 95.000000
E 108 547 96.000000
E 108 626 104.000000
E 109 230 100.000000
E 109 239 107.000000
E 109 335 101.000000
E 109 562 98.000000
E 110 182 97.000000
E 110 430 91.000000
E 110 614 93.000000
E 111 373 104.000000
E 111 383 96.000000
E 111 640 95.000000
E 112 210 93.000000
E 112 308 101.000000
E 112 567 99.000000
E 113 229 106.000000
E 113 273 111.000000
E 114 318 107.000000
E 114 504 99.000000
E 115 145 94.000000
E 115 290 98.000000
E 115 446 104.000000
E 115 450 106.000000
E 115 455 97.000000
E 116 246 98.000000
E 116 581 104.000000
E 116 586 99.000000
E 117 216 96.000000
E 117 445 87.000000
E 117 493 95.000000
E 118 365 93.000000
E 118 373 104.000000
E 119 253 94.000000
E 119 290 97.000000
E 119 303 105.000000
E 119 430 102.000000
E 119 456 101.000000
E 120 214 96.000000
E 120 457 98.000000
E 121 329 110.000000
E 121 592 95.000000
E 122 176 105.000000
E 122 206 90.000000
E 122 380 104.000000
E 123 150 91.000000
E 123 165 106.000000
E 123 622 98.000000
E 124 142 96.000000
E 124 230 90.000000
E 124 344 96.000000
E 124 386 97.000000
E 124 448 101.000000
E 124 565 96.000000
E 124 639 98.000000
E 125 174 97.000000
E 125 215 108.000000
E 125 251 95.000000
E 125 378 96.000000
E 126 200 104.000000
E 126 257 102.000000
E 126 427 95.000000
E 126 490 95.000000
E 127 134 94.000000
E 127 237 103.000000
E 127 376 101.000000
E 127 470 103.000000
E 128 157 104.000000
E 128 225 95.000000
E 128 243 101.000000
E 128 268 100.000000
E 128 417 100.000000
E 128 516 101.000000
E 129 438 100.000000
E 129 580 100.000000
E 130 534 102.000000
E 130 561 108.000000
E 130 609 91.000000
E 130 615 97.000000
E 131 193 91.000000
E 131 546 113.000000
E 132 158 99.000000
E 132 473 103.000000
E 132 498 93.000000
E 133 297 100.000000
E 133 558 105.000000
E 134 273 99.000000
E 135 142 91.000000
E 135 491 98.000000
E 136 270 98.000000
E 136 356 106.000000
E 136 451 107.000000
E 137 148 109.000000
E 137 245 98.000000
E 137 287 98.000000
E 137 510 94.000000
E 137 513 103.000000
E 137 545 98.000000
E 138 370 97.000000
E 138 628 102.000000
E 139 417 96.000000
E 139 539 96.000000
E 140 169 102.000000
E 140 542 92.000000
E 141 190 91.000000
E 141 236 102.000000
E 141 337 107.000000
E 141 360 100.000000
E 141 390 104.000000
E 141 409 101.000000
E 141 564 97.000000
E 142 227 102.000000
E 142 242 96.000000
E 142 488 101.000000
E 142 583 96.000000
E 143 196 108.000000
E 143 386 95.000000
E 144 377 104.000000
E 145 259 91.000000
E 145 382 101.000000
E 145 616 99.000000
E 146 185 109.000000
E 146 294 105.000000
E 147 273 89.000000
E 147 306 98.000000
E 147 361 100.000000
E 147 447 96.000000
E 148 354 97.000000
E 149 326 105.000000
E 149 373 101.000000
E 149 536 108.000000
E 150 408 97.000000
E 151 344 99.000000
E 151 455 98.000000
E 152 157 105.000000
E 152 302 100.000000
E 152 546 102.000000
E 153 237 99.000000
E 153 615 91.000000
E 154 171 94.000000
E 154 624 103.000000
E 156 348 93.000000
E 156 422 104.000000
E 156 585 99.000000
E 157 213 98.000000
E 157 413 95.000000
E 157 499 99.000000
E 157 502 89.000000
E 157 515 109.000000
E 157 527 94.000000
E 157 567 91.000000
E 157 572 99.000000
E 158 177 100.000000
E 158 449 99.000000
E 159 179 98.000000
E 159 472 97.000000
E 159 528 102.000000
E 160 311 100.000000
E 160 360 101.000000
E 161 296 108.000000
E 161 343 95.000000
E 161 426 105.000000
E 161 452 101.000000
E 162 349 104.000000
E 163 297 101.000000
E 163 323 98.000000
E 163 608 104.000000
E 164 635 100.000000
E 165 230 99.000000
E 166 174 100.000000
E 166 300 97.000000
E 166 337 99.000000
E 166 377 98.000000
E 167 423 100.000000
E 167 456 102.000000
E 167 522 93.000000
E 168 467 93.000000
E 169 230 94.000000
E 169 268 94.000000
E 169 394 104.000000
E 169 399 94.000000
E 169 402 95.000000
E 169 409 99.000000
E 169 472 99.000000
E 169 566 102.000000
E 170 226 95.000000
E 170 308 109.000000
E 170 450 90.000000
E 170 561 109.000000
E 171 262 99.000000
E 171 445 96.000000
E 171 457 101.000000
E 171 598 92.000000
E 172 525 110.000000
E 172 532 95.000000
E 172 633 101.000000
E 173 269 97.000000
E 173 600 101.000000
E 174 278 104.000000
E 175 300 91.000000
E 176 182 101.000000
E 176 218 101.000000
E 176 374 107.000000
E 176 379 100.000000
E 176 464 106.000000
E 176 603 99.000000
E 177 207 99.000000
E 177 452 90.000000
E 177 605 106.000000
E 178 214 103.000000
E 178 315 94.000000
E 179 193 94.000000
E 179 573 92.000000
E 179 613 103.000000
E 180 242 101.000000
E 180 523 105.000000
E 181 195 101.000000
E 181 222 96.000000
E 181 591 103.000000
E 182 239 109.000000
E 183 185 101.000000
E 183 244 93.000000
E 183 284 104.000000
E 183 367 107.000000
E 183 627 102.000000
E 184 234 103.000000
E 184 443 96.000000
E 184 590 102.000000
E 185 405 95.000000
E 185 521 90.000000
E 186 228 104.000000
E 186 476 87.000000
E 186 484 106.000000
E 186 545 107.000000
E 187 302 106.000000
E 187 392 105.000000
E 188 274 100.000000
E 188 589 94.000000
E 189 223 104.000000
E 189 469 108.000000
E 190 215 101.000000
E 191 373 106.000000
E 191 374 99.000000
E 192 303 99.000000
E 192 354 98.000000
E 192 608 96.000000
E 193 373 101.000000
E 193 619 99.000000
E 194 270 96.000000
E 194 359 100.000000
E 194 394 92.000000
E 194 455 101.000000
E 194 567 105.000000
E 195 225 109.000000
E 195 420 101.000000
E 195 425 95.000000
E 195 488 100.000000
E 196 237 98.000000
E 196 509 103.000000
E 197 347 99.000000
E 197 355 102.000000
E 197 558 91.000000
E 198 252 101.000000
E 198 332 102.000000
E 198 403 102.000000
E 199 515 99.000000
E 199 538 91.000000
E 200 221 96.000000
E 200 479 98.000000
E 200 487 99.000000
E 200 537 106.000000
E 200 601 108.000000
E 202 220 103.000000
E 202 370 102.000000
E 202 477 104.000000
E 202 549 108.000000
E 203 367 100.000000
E 203 383 104.000000
E 203 411 100.000000
E 203 502 101.000000
E 204 328 101.000000
E 204 340 107.000000
E 204 471 103.000000
E 204 531 103.000000
E 205 529 100.000000
E 206 207 105.000000
E 206 495 96.000000
E 206 600 97.000000
E 207 395 91.000000
E 207 567 95.000000
E 208 236 104.000000
E 208 324 105.000000
E 208 483 96.000000
E 208 491 96.000000
E 208 607 88.000000
E 209 445 96.000000
E 210 303 98.000000
E 210 362 102.000000
E 210 555 99.000000
E 211 495 99.000000
E 211 521 104.000000
E 211 549 109.000000
E 212 474 90.000000
E 213 229 100.000000
E 213 252 101.000000
E 213 482 100.000000
E 213 579 105.000000
E 214 452 93.000000
E 214 458 100.000000
E 215 425 102.000000
E 215 610 106.000000
E 216 286 106.000000
E 217 251 94.000000
E 217 258 102.000000
E 217 272 101.000000
E 218 250 96.000000
E 218 489 92.000000
E 219 301 98.000000
E 219 576 105.000000
E 220 260 105.000000
E 220 531 100.000000
E 221 500 106.000000
E 222 372 110.000000
E 222 381 88.000000
E 222 547 100.000000
E 223 428 99.000000
E 224 306 94.000000
E 224 465 109.000000
E 225 339 102.000000
E 226 435 100.000000
E 226 531 100.000000
E 226 599 100.000000
E 227 470 99.000000
E 228 263 95.000000
E 228 535 95.000000
E 229 519 89.000000
E 229 526 92.000000
E 229 635 106.000000
E 230 268 101.000000
E 230 277 98.000000
E 230 555 101.000000
E 231 279 105.000000
E 231 462 95.000000
E 231 518 112.000000
E 231 610 92.000000
E 232 374 97.000000
E 232 514 93.000000
E 232 640 98.000000
E 233 461 99.000000
E 233 527 105.000000
E 233 577 97.000000
E 234 317 99.000000
E 234 546 99.000000
E 235 310 107.000000
E 235 363 94.000000
E 235 581 98.000000
E 236 390 86.000000
E 236 535 91.000000
E 236 543 94.000000
E 237 303 92.000000
E 238 488 106.000000
E 239 265 108.000000
E 239 295 97.000000
E 239 427 104.000000
E 240 307 107.000000
E 241 250 98.000000
E 241 264 103.000000
E 242 341 97.000000
E 243 426 96.000000
E 243 553 104.000000
E 245 308 101.000000
E 245 362 103.000000
E 245 574 110.000000
E 246 262 96.000000
E 246 431 111.000000
E 246 530 105.000000
E 247 386 100.000000
E 247 451 93.000000
E 248 293 104.000000
E 248 413 86.000000
E 248 415 93.000000
E 248 625 105.000000
E 249 461 98.000000
E 249 526 90.000000
E 249 541 102.000000
E 250 486 101.000000
E 250 561 92.000000
E 251 347 103.000000
E 251 534 96.000000
E 252 301 106.000000
E 252 468 100.000000
E 252 497 97.000000
E 252 543 96.000000
E 252 604 100.000000
E 253 398 98.000000
E 254 619 105.000000
E 255 326 92.000000
E 255 542 98.000000
E 256 462 96.000000
E 256 546 93.000000
E 257 322 105.000000
E 257 528 98.000000
E 257 595 101.000000
E 258 411 99.000000
E 258 505 102.000000
E 258 540 101.000000
E 259 332 95.000000
E 260 276 99.000000
E 260 427 96.000000
E 261 346 99.000000
E 264 302 108.000000
E 264 477 101.000000
E 265 286 98.000000
E 265 496 99.000000
E 265 595 105.000000
E 266 277 101.000000
E 266 451 99.000000
E 266 522 99.000000
E 266 541 101.000000
E 266 595 104.000000
E 266 601 85.000000
E 267 280 106.000000
E 267 437 104.000000
E 269 299 104.000000
E 269 529 103.000000
E 269 601 88.000000
E 269 612 97.000000
E 270 327 104.000000
E 270 384 93.000000
E 270 459 92.000000
E 270 572 108.000000
E 271 430 95.000000
E 272 297 101.000000
E 272 362 108.000000
E 273 542 105.000000
E 274 314 97.000000
E 274 359 101.000000
E 274 413 103.000000
E 274 461 95.000000
E 274 542 98.000000
E 274 591 95.000000
E 275 372 93.000000
E 275 496 95.000000
E 275 527 94.000000
E 275 552 96.000000
E 276 305 101.000000
E 276 330 94.000000
E 276 426 99.000000
E 277 405 104.000000
E 278 308 100.000000
E 278 354 99.000000
E 278 517 100.000000
E 278 571 94.000000
E 279 304 98.000000
E 279 550 93.000000
E 281 388 98.000000
E 282 293 101.000000
E 282 390 99.000000
E 282 439 104.000000
E 282 602 95.000000
E 283 328 105.000000
E 283 361 99.000000
E 283 388 102.000000
E 285 425 94.000000
E 287 308 102.000000
E 288 369 105.000000
E 288 404 113.000000
E 288 419 100.000000
E 288 463 105.000000
E 288 496 96.000000
E 288 619 102.000000
E 289 345 99.000000
E 289 447 90.000000
E 289 615 99.000000
E 289 616 93.000000
E 290 300 100.000000
E 290 557 106.000000
E 291 318 99.000000
E 291 401 97.000000
E 291 425 101.000000
E 291 473 110.000000
E 291 507 95.000000
E 292 319 106.000000
E 292 374 95.000000
E 293 627 107.000000
E 294 313 100.000000
E 294 379 106.000000
E 294 620 103.000000
E 295 458 104.000000
E 296 507 100.000000
E 296 513 100.000000
E 296 590 98.000000
E 296 600 98.000000
E 297 308 111.000000
E 298 332 100.000000
E 298 418 97.000000
E 298 616 96.000000
E 299 502 98.000000
E 299 548 112.000000
E 299 551 94.000000
E 300 356 99.000000
E 300 563 90.000000
E 301 462 104.000000
E 302 421 94.000000
E 303 343 107.000000
E 303 634 98.000000
E 304 340 102.000000
E 304 559 101.000000
E 305 314 104.000000
E 306 339 102.000000
E 306 340 101.000000
E 306 357 102.000000
E 306 601 101.000000
E 307 430 103.000000
E 307 436 99.000000
E 308 353 100.000000
E 308 623 102.000000
E 309 577 96.000000
E 309 628 103.000000
E 310 317 97.000000
E 310 394 103.000000
E 311 539 98.000000
E 311 591 95.000000
E 311 609 98.000000
E 312 437 95.000000
E 313 375 98.000000
E 313 534 98.000000
E 315 483 108.000000
E 315 526 99.000000
E 316 376 102.000000
E 318 381 100.000000
E 318 389 108.000000
E 319 468 98.000000
E 319 627 95.000000
E 320 425 99.000000
E 320 606 98.000000
E 320 621 94.000000
E 321 374 96.000000
E 321 512 99.000000
E 321 550 87.000000
E 321 631 99.000000
E 322 592 96.000000
E 322 595 106.000000
E 323 332 104.000000
E 323 578 95.000000
E 324 519 90.000000
E 325 372 97.000000
E 325 468 107.000000
E 325 529 96.000000
E 325 577 104.000000
E 326 358 92.000000
E 326 553 98.000000
E 327 388 101.000000
E 327 445 104.000000
E 327 508 99.000000
E 327 626 100.000000
E 328 394 102.000000
E 328 630 94.000000
E 329 441 100.000000
E 329 481 92.000000
E 330 490 100.000000
E 330 532 102.000000
E 330 573 107.000000
E 331 451 102.000000
E 332 413 92.000000
E 332 529 102.000000
E 333 433 101.000000
E 333 504 98.000000
E 334 581 105.000000
E 335 554 101.000000
E 336 622 97.000000
E 337 396 98.000000
E 337 441 106.000000
E 339 429 100.000000
E 340 580 99.000000
E 341 366 104.000000
E 344 413 103.000000
E 344 552 96.000000
E 344 587 101.000000
E 344 633 99.000000
E 345 396 101.000000
E 345 458 101.000000
E 345 460 96.000000
E 345 494 102.000000
E 346 407 101.000000
E 346 534 89.000000
E 346 574 104.000000
E 346 600 97.000000
E 347 451 101.000000
E 347 537 99.000000
E 347 560 99.000000
E 348 509 91.000000
E 349 350 95.000000
E 349 391 102.000000
E 349 535 103.000000
E 349 567 97.000000
E 350 475 96.000000
E 350 548 100.000000
E 350 574 104.000000
E 351 618 99.000000
E 352 456 99.000000
E 352 528 98.000000
E 354 355 100.000000
E 355 510 105.000000
E 355 639 103.000000
E 356 442 105.000000
E 356 498 102.000000
E 356 511 102.000000
E 356 525 94.000000
E 357 435 101.000000
E 357 500 103.000000
E 357 568 98.000000
E 357 630 101.000000
E 358 413 100.000000
E 361 575 93.000000
E 362 530 104.000000
E 362 548 99.000000
E 363 367 101.000000
E 363 569 97.000000
E 364 381 100.000000
E 366 381 92.000000
E 366 546 97.000000
E 368 416 93.000000
E 368 466 99.000000
E 369 380 104.000000
E 369 593 101.000000
E 370 503 104.000000
E 370 531 97.000000
E 372 625 103.000000
E 373 453 107.000000
E 373 493 104.000000
E 373 504 99.000000
E 373 534 97.000000
E 373 560 104.000000
E 373 603 99.000000
E 373 619 100.000000
E 374 404 105.000000
E 374 413 95.000000
E 374 427 104.000000
E 374 440 101.000000
E 374 596 97.000000
E 374 621 96.000000
E 375 415 105.000000
E 375 617 102.000000
E 376 396 103.000000
E 376 486 91.000000
E 376 488 101.000000
E 376 522 96.000000
E 380 468 100.000000
E 382 520 105.000000
E 382 633 103.000000
E 383 400 101.000000
E 383 417 103.000000
E 383 542 110.000000
E 383 598 95.000000
E 383 603 97.000000
E 384 502 97.000000
E 385 440 97.000000
E 385 451 91.000000
E 385 512 105.000000
E 385 558 89.000000
E 385 564 101.000000
E 386 518 101.000000
E 386 546 101.000000
E 386 622 100.000000
E 387 491 93.000000
E 387 515 97.000000
E 387 572 102.000000
E 388 473 94.000000
E 389 436 88.000000
E 390 444 104.000000
E 390 464 101.000000
E 390 489 99.000000
E 390 496 106.000000
E 391 430 104.000000
E 391 635 106.000000
E 392 540 95.000000
E 393 433 101.000000
E 393 481 106.000000
E 393 581 101.000000
E 395 450 97.000000
E 395 459 99.000000
E 395 480 93.000000
E 395 577 100.000000
E 395 628 104.000000
E 396 519 100.000000
E 396 544 94.000000
E 397 563 84.000000
E 397 609 96.000000
E 398 556 95.000000
E 398 562 102.000000
E 400 409 107.000000
E 400 607 94.000000
E 402 423 107.000000
E 402 551 99.000000
E 403 564 103.000000
E 404 496 99.000000
E 404 611 102.000000
E 405 548 93.000000
E 406 554 89.000000
E 407 415 97.000000
E 408 428 107.000000
E 408 539 95.000000
E 409 485 102.000000
E 409 523 99.000000
E 409 629 103.000000
E 411 515 95.000000
E 411 567 110.000000
E 412 473 99.000000
E 413 510 106.000000
E 413 561 100.000000
E 414 542 98.000000
E 416 449 109.000000
E 416 516 99.000000
E 417 476 107.000000
E 419 445 104.000000
E 419 539 96.000000
E 419 610 105.000000
E 420 432 106.000000
E 421 515 93.000000
E 421 559 99.000000
E 422 459 106.000000
E 422 582 94.000000
E 423 582 93.000000
E 423 593 99.000000
E 424 567 90.000000
E 425 486 97.000000
E 425 562 99.000000
E 425 611 99.000000
E 426 489 100.000000
E 426 498 97.000000
E 426 612 97.000000
E 427 589 104.000000
E 427 604 94.000000
E 428 610 100.000000
E 429 541 91.000000
E 430 447 82.000000
E 430 451 94.000000
E 430 575 96.000000
E 430 628 100.000000
E 430 638 100.000000
E 431 490 105.000000
E 431 516 96.000000
E 433 506 105.000000
E 434 565 106.000000
E 436 620 109.000000
E 437 478 97.000000
E 437 573 94.000000
E 437 625 93.000000
E 439 522 94.000000
E 439 610 99.000000
E 440 539 98.000000
E 440 590 99.000000
E 441 449 97.000000
E 443 558 99.000000
E 444 450 100.000000
E 444 637 100.000000
E 445 518 95.000000
E 449 539 96.000000
E 450 539 105.000000
E 450 629 97.000000
E 452 486 95.000000
E 453 559 97.000000
E 454 480 98.000000
E 454 527 102.000000
E 454 612 101.000000
E 457 556 110.000000
E 460 487 103.000000
E 460 502 95.000000
E 461 463 104.000000
E 461 481 103.000000
E 463 509 99.000000
E 465 526 106.000000
E 465 573 101.000000
E 466 488 99.000000
E 467 515 98.000000
E 468 476 96.000000
E 469 577 98.000000
E 470 515 97.000000
E 472 560 100.000000
E 474 490 97.000000
E 475 502 88.000000
E 475 568 99.000000
E 478 561 100.000000
E 478 586 107.000000
E 478 597 96.000000
E 479 534 101.000000
E 480 542 103.000000
E 482 512 97.000000
E 482 573 81.000000
E 483 556 107.000000
E 483 568 104.000000
E 483 627 103.000000
E 484 561 95.000000
E 484 570 94.000000
E 484 579 111.000000
E 485 624 90.000000
E 486 574 98.000000
E 488 517 101.000000
E 492 522 100.000000
E 493 549 92.000000
E 493 558 109.000000
E 494 543 101.000000
E 494 623 95.000000
E 495 636 98.000000
E 496 509 96.000000
E 496 552 96.000000
E 497 558 101.000000
E 498 581 105.000000
E 498 606 99.000000
E 498 621 89.000000
E 498 625 91.000000
E 501 610 97.000000
E 504 617 98.000000
E 507 511 95.000000
E 508 540 97.000000
E 508 548 103.000000
E 508 626 98.000000
E 509 575 103.000000
E 509 609 93.000000
E 510 633 99.000000
E 511 535 102.000000
E 511 634 92.000000
E 512 523 97.000000
E 512 608 94.000000
E 513 519 97.000000
E 518 580 102.000000
E 524 632 104.000000
E 525 561 100.000000
E 527 630 100.000000
E 528 636 97.000000
E 529 627 99.000000
E 530 564 108.000000
E 531 585 107.000000
E 532 633 105.000000
E 533 565 94.000000
E 533 577 102.000000
E 533 593 93.000000
E 537 555 104.000000
E 537 618 103.000000
E 538 593 98.000000
E 539 576 87.000000
E 542 565 100.000000
E 542 607 99.000000
E 542 614 100.000000
E 546 639 104.000000
E 550 599 99.000000
E 550 628 107.000000
E 552 599 99.000000
E 553 588 104.000000
E 554 602 102.000000
E 554 608 99.000000
E 559 596 96.000000
E 569 635 108.000000
E 577 584 98.000000
E 578 639 103.000000
E 580 605 98.000000
E 582 638 97.000000
E 585 592 96.000000
E 585 620 98.000000
E 586 606 97.000000
E 593 629 106.000000
E 594 637 106.000000
E 595 607 99.000000
E 603 605 101.000000
E 616 622 97.000000
E 616 627 103.000000
E 618 626 109.000000
E 630 633 102.000000
END

SECTION Terminals
Terminals 50
TP 1 688.000000
TP 2 968.000000
TP 3 1040.000000
TP 4 912.000000
TP 5 448.000000
TP 6 96.000000
TP 7 492.000000
TP 8 420.000000
TP 9 652.000000
TP 10 620.000000
TP 11 596.000000
TP 12 876.000000
TP 13 168.000000
TP 14 816.000000
TP 15 400.000000
TP 16 984.000000
TP 17 756.000000
TP 18 1168.000000
TP 19 1092.000000
TP 20 208.000000
TP 21 692.000000
TP 22 280.000000
TP 23 544.000000
TP 24 368.000000
TP 25 268.000000
TP 26 576.000000
TP 27 1092.000000
TP 28 772.000000
TP 29 884.000000
TP 30 140.000000
TP 31 1164.000000
TP 32 824.000000
TP 33 428.000000
TP 34 1144.000000
TP 35 428.000000
TP 36 332.000000
TP 37 392.000000
TP 38 876.000000
TP 39 168.000000
TP 40 196.000000
TP 41 780.000000
TP 42 428.000000
TP 43 1216.000000
TP 44 828.000000
TP 45 340.000000
TP 46 1164.000000
TP 47 568.000000
TP 48 812.000000
TP 49 724.000000
TP 50 628.000000
END

EOF
